language ESSENCE' 1.0
$ Minion SolverNodes: 1
$ Minion SolverTotalTime: 0.03769
$ Minion SolverTimeOut: 0
$ Savile Row TotalTime: 0.16
letting M be [[12, 29, 27, 3], 
[3, 29, 27, -1], 
[29, 27, -1, -1], 
[27, -1, -1, -1]]
